Using license file /home/benedond/gurobi.lic
Using gurobi.env file
Set parameter Threads to value 1
Academic license - for non-commercial use only
Changed value of parameter TimeLimit to 300.0
   Prev: inf  Min: 0.0  Max: inf  Default: inf
Gurobi Optimizer version 9.0.1 build v9.0.1rc0 (linux64)
Optimize a model with 603 rows, 527 columns and 2459 nonzeros
Model fingerprint: 0xaebfe7dd
Variable types: 30 continuous, 497 integer (497 binary)
Coefficient statistics:
  Matrix range     [2e-01, 4e+02]
  Objective range  [1e-02, 7e-01]
  Bounds range     [1e+00, 1e+00]
  RHS range        [1e+00, 6e+02]
Presolve removed 64 rows and 41 columns
Presolve time: 0.02s
Presolved: 539 rows, 486 columns, 3966 nonzeros
Variable types: 28 continuous, 458 integer (458 binary)

Root relaxation: objective 2.927390e+00, 465 iterations, 0.01 seconds

    Nodes    |    Current Node    |     Objective Bounds      |     Work
 Expl Unexpl |  Obj  Depth IntInf | Incumbent    BestBd   Gap | It/Node Time

     0     0    2.92739    0   56          -    2.92739      -     -    0s
H    0     0                       4.3964616    2.92739  33.4%     -    0s
H    0     0                       4.3075077    2.92739  32.0%     -    0s
     0     0    2.98520    0   79    4.30751    2.98520  30.7%     -    0s
     0     0    2.98745    0   68    4.30751    2.98745  30.6%     -    0s
     0     0    3.08843    0   69    4.30751    3.08843  28.3%     -    0s
H    0     0                       4.0928000    3.08843  24.5%     -    0s
     0     0    3.09256    0   68    4.09280    3.09256  24.4%     -    0s
     0     0    3.15959    0   59    4.09280    3.15959  22.8%     -    0s
     0     0    3.16438    0   67    4.09280    3.16438  22.7%     -    0s
     0     0    3.20678    0   71    4.09280    3.20678  21.6%     -    0s
H    0     0                       4.0927998    3.20678  21.6%     -    0s
     0     0    3.21328    0   70    4.09280    3.21328  21.5%     -    0s
     0     0    3.22430    0   77    4.09280    3.22430  21.2%     -    0s
     0     0    3.22553    0   78    4.09280    3.22553  21.2%     -    0s
     0     0    3.22565    0   78    4.09280    3.22565  21.2%     -    0s
     0     0    3.24509    0   73    4.09280    3.24509  20.7%     -    0s
H    0     0                       3.9472462    3.24509  17.8%     -    0s
     0     0    3.24622    0   73    3.94725    3.24622  17.8%     -    0s
     0     0    3.24674    0   74    3.94725    3.24674  17.7%     -    0s
     0     0    3.25121    0   81    3.94725    3.25121  17.6%     -    0s
     0     0    3.25332    0   73    3.94725    3.25332  17.6%     -    0s
     0     0    3.25588    0   77    3.94725    3.25588  17.5%     -    0s
     0     0    3.25604    0   80    3.94725    3.25604  17.5%     -    0s
     0     0    3.25604    0   81    3.94725    3.25604  17.5%     -    0s
     0     0    3.25711    0   67    3.94725    3.25711  17.5%     -    0s
     0     0    3.25764    0   51    3.94725    3.25764  17.5%     -    0s
     0     0    3.25771    0   65    3.94725    3.25771  17.5%     -    0s
     0     0    3.25917    0   64    3.94725    3.25917  17.4%     -    0s
     0     0    3.26079    0   74    3.94725    3.26079  17.4%     -    0s
     0     0    3.26128    0   72    3.94725    3.26128  17.4%     -    0s
     0     0    3.26149    0   81    3.94725    3.26149  17.4%     -    0s
     0     0    3.26169    0   95    3.94725    3.26169  17.4%     -    0s
     0     0    3.26170    0   79    3.94725    3.26170  17.4%     -    0s
     0     0    3.26254    0   92    3.94725    3.26254  17.3%     -    0s
     0     0    3.26259    0   91    3.94725    3.26259  17.3%     -    0s
     0     0    3.26531    0   71    3.94725    3.26531  17.3%     -    0s
     0     0    3.26531    0   72    3.94725    3.26531  17.3%     -    0s
     0     0    3.26543    0   72    3.94725    3.26543  17.3%     -    0s
     0     0    3.26543    0   70    3.94725    3.26543  17.3%     -    0s
H    0     0                       3.9089846    3.26543  16.5%     -    0s
     0     2    3.27961    0   68    3.90898    3.27961  16.1%     -    0s
H    8     8                       3.8688462    3.30412  14.6%  59.6    0s
H   40    28                       3.7966462    3.34740  11.8%  53.1    0s
*   75    26              18       3.6136154    3.36557  6.86%  42.5    0s
*   99    22               9       3.5614462    3.36792  5.43%  39.4    0s

Cutting planes:
  Cover: 17
  Implied bound: 4
  Clique: 5
  MIR: 38
  StrongCG: 5
  Zero half: 1
  Mod-K: 1
  RLT: 2
  Relax-and-lift: 58

Explored 189 nodes (8617 simplex iterations) in 1.08 seconds
Thread count was 1 (of 4 available processors)

Solution count 10: 3.56145 3.61362 3.79665 ... 4.39646

Optimal solution found (tolerance 1.00e-04)
Best objective 3.561446158313e+00, best bound 3.561446158313e+00, gap 0.0000%
